3
50
12789
[[805,263,108,518,927,142,677,827,725,291,824,863,859,957,293,286,592,410,844,662,565,458,879, 70,237,440,730,290,531,262, 97,979,701,976,710,602,699,238,865,175,109,360,693,923,784,750, 87,326,774,399],
 [129,982,588, 75,509,608,357,375,162,449,103,420,595,215,957,911,146,101,533,325,947,489,  2,180,205,964,423,507,454, 20,386,798,191,626,943,144,653,429,757,569,213,281, 66,811,539,831,268,343,313,748],
 [931,132,311,749,584,482,709,408,404,361,774,184,949,301, 63,960,811,453,243,659,395,758,516,698,841,467,460,948,981,778,500,454,875,974,123,478,252,233,  8,607,697,527,846,273,525,986,191,886,497, 75]]
[580,585,322,183,642,939,228,991,997,425,396,982,964,378,947,533,107,338,424,370,281, 37,791,981,701,832,436,611,269,595, 32,103,348,561,849,261,657,347,348,661, 47,446,910,567, 48,444,804,495,242,543]